NAME : C-n10-k3
CAPACITY : 565
NODE_COORD_SECTION
1   157   320
2   213   214
3   141   291
4   372   227
5   203   274
6   362   102
7   260   332
8   263   229
9   451   294
10   122   405
DEMAND_SECTION
1   0
2   36
3   56
4   82
5   100
6   59
7   61
8   14
9   79
10   76
DEPOT_SECTION
    1
    -1
EOF